565 575 1340 725
25 185 25 185
345 750 25 230
945 685 475 960
845 655 580 1175
880 660 525 1000
25 230 345 750
525 1000 145 665
580 1175 595 360
650 1130 660 180
1605 620 830 485
1220 580 415 635
1465 200 555 815
1530 5 510 875
845 680 565 575
725 370 560 365
145 665 605 625
415 635 575 665
510 875 520 585
560 365 760 650
300 465 835 625
520 585 770 610
480 415 480 415
835 625 845 655
975 580 1170 65
1215 245 945 685
1320 315 420 555
1250 400 795 645
660 180 685 595
410 250 685 610
420 555 875 920
575 665 1220 580
1150 1160 1320 315
700 580 1215 245
685 595 880 660
685 610 845 680
770 610 1150 1160
795 645 1250 400
720 635 1465 200
760 650 1530 5
475 960 975 580
95 260 830 610
875 920 720 635
700 500 650 1130
555 815 95 260
830 485 300 465
1170 65 410 250
830 610 700 580
605 625 700 500
595 360 725 370
1340 725 1605 620
1740 245 1740 245
